10
1 0 4
2 0 5
2 1 4
3 0 1
3 1 2
3 2 4
4 0 3
4 1 2
4 2 6
4 3 5
5 0 4
5 1 6
5 2 5
5 3 2
5 4 4
6 0 6
6 1 3
6 2 3
6 3 4
6 4 4
6 5 3
7 0 2
7 1 1
7 2 5
7 3 6
7 4 1
7 5 3
7 6 1
8 0 4
8 1 4
8 2 1
8 3 4
8 4 3
8 5 1
8 6 6
8 7 5
9 0 5
9 1 3
9 2 3
9 3 1
9 4 5
9 5 4
9 6 3
9 7 2
9 8 4
